c A SAT instance generated from a 3-CNF formula that had 12 clauses and 8 variables
p cnf 8 12
-7 -3 -8 0
6 1 -5 0
-7 -1 -6 0
-5 -6 -1 0
-6 -5 2 0
-4 2 7 0
6 -5 4 0
8 -3 4 0
-3 7 8 0
-7 -6 8 0
3 1 -4 0
-6 2 1 0
